161 300 194 153 196 173 174 159 190 200 150 183 192 199 191 181 155 170 169 159 182 167 172 153 190 168 150 189 159 192 156 195 159 174 172 179 197 171 188 186 170 163 194 161 161 158 166 191 153 160 175 185 177 171 188 166 190 188 180 173 180 160 193 163 184 164 192 154 185 180 164 154 193 157 190 178 191 156 193 194 166 167 178 167 189 165 158 152 177 188 175 156 172 192 194 155 156 186 184 165 190 198 195 156 180 184 158 170 164 150 163 154 193 191 172 181 180 180 157 156 192 182 188 163 174 181 193 154 166 176 169 155 198 188 186 151 172 194 171 160 169 158 165 161 173 161 166 152 191 173 159 182 179 171 169 177 151 161 181 168 161 175 198 